(set-info :smt-lib-version 2.6)
(set-logic QF_AX)
(set-info :source |
Benchmarks used in the followin paper:
Big proof engines as little proof engines: new results on rewrite-based satisfiability procedure
Alessandro Armando, Maria Paola Bonacina, Silvio Ranise, Stephan Schulz. 
PDPAR'05
http://www.ai.dist.unige.it/pdpar05/


|)
(set-info :category "crafted")
(set-info :status sat)
(declare-sort Index 0)
(declare-sort Element 0)
(declare-fun a_711 () (Array Index Element))
(declare-fun a_713 () (Array Index Element))
(declare-fun a_715 () (Array Index Element))
(declare-fun a_717 () (Array Index Element))
(declare-fun a_719 () (Array Index Element))
(declare-fun a_721 () (Array Index Element))
(declare-fun a_723 () (Array Index Element))
(declare-fun a_725 () (Array Index Element))
(declare-fun a_727 () (Array Index Element))
(declare-fun a_729 () (Array Index Element))
(declare-fun a_731 () (Array Index Element))
(declare-fun a_733 () (Array Index Element))
(declare-fun a_735 () (Array Index Element))
(declare-fun a_737 () (Array Index Element))
(declare-fun a_739 () (Array Index Element))
(declare-fun a_741 () (Array Index Element))
(declare-fun a_743 () (Array Index Element))
(declare-fun a_745 () (Array Index Element))
(declare-fun a_747 () (Array Index Element))
(declare-fun a_748 () (Array Index Element))
(declare-fun a_749 () (Array Index Element))
(declare-fun a_750 () (Array Index Element))
(declare-fun a_752 () (Array Index Element))
(declare-fun a_754 () (Array Index Element))
(declare-fun a_756 () (Array Index Element))
(declare-fun a_758 () (Array Index Element))
(declare-fun a_760 () (Array Index Element))
(declare-fun a_762 () (Array Index Element))
(declare-fun a_764 () (Array Index Element))
(declare-fun a_766 () (Array Index Element))
(declare-fun a_768 () (Array Index Element))
(declare-fun a_770 () (Array Index Element))
(declare-fun a_772 () (Array Index Element))
(declare-fun a_774 () (Array Index Element))
(declare-fun a_776 () (Array Index Element))
(declare-fun a_778 () (Array Index Element))
(declare-fun a_780 () (Array Index Element))
(declare-fun a_782 () (Array Index Element))
(declare-fun a_784 () (Array Index Element))
(declare-fun a_786 () (Array Index Element))
(declare-fun e_710 () Element)
(declare-fun e_712 () Element)
(declare-fun e_714 () Element)
(declare-fun e_716 () Element)
(declare-fun e_718 () Element)
(declare-fun e_720 () Element)
(declare-fun e_722 () Element)
(declare-fun e_724 () Element)
(declare-fun e_726 () Element)
(declare-fun e_728 () Element)
(declare-fun e_730 () Element)
(declare-fun e_732 () Element)
(declare-fun e_734 () Element)
(declare-fun e_736 () Element)
(declare-fun e_738 () Element)
(declare-fun e_740 () Element)
(declare-fun e_742 () Element)
(declare-fun e_744 () Element)
(declare-fun e_746 () Element)
(declare-fun e_751 () Element)
(declare-fun e_753 () Element)
(declare-fun e_755 () Element)
(declare-fun e_757 () Element)
(declare-fun e_759 () Element)
(declare-fun e_761 () Element)
(declare-fun e_763 () Element)
(declare-fun e_765 () Element)
(declare-fun e_767 () Element)
(declare-fun e_769 () Element)
(declare-fun e_771 () Element)
(declare-fun e_773 () Element)
(declare-fun e_775 () Element)
(declare-fun e_777 () Element)
(declare-fun e_779 () Element)
(declare-fun e_781 () Element)
(declare-fun e_783 () Element)
(declare-fun e_785 () Element)
(declare-fun a1 () (Array Index Element))
(declare-fun i0 () Index)
(declare-fun i1 () Index)
(declare-fun i2 () Index)
(declare-fun i3 () Index)
(declare-fun i4 () Index)
(declare-fun i6 () Index)
(declare-fun i7 () Index)
(declare-fun i8 () Index)
(assert (= a_711 (store a1 i0 e_710)))
(assert (= a_713 (store a_711 i1 e_712)))
(assert (= a_715 (store a_713 i4 e_714)))
(assert (= a_717 (store a_715 i6 e_716)))
(assert (= a_719 (store a_717 i1 e_718)))
(assert (= a_721 (store a_719 i4 e_720)))
(assert (= a_723 (store a_721 i0 e_722)))
(assert (= a_725 (store a_723 i1 e_724)))
(assert (= a_727 (store a_725 i7 e_726)))
(assert (= a_729 (store a_727 i0 e_728)))
(assert (= a_731 (store a_729 i2 e_730)))
(assert (= a_733 (store a_731 i0 e_732)))
(assert (= a_735 (store a_733 i8 e_734)))
(assert (= a_737 (store a_735 i3 e_736)))
(assert (= a_739 (store a_737 i6 e_738)))
(assert (= a_741 (store a_739 i2 e_740)))
(assert (= a_743 (store a_741 i2 e_742)))
(assert (= a_745 (store a_743 i4 e_744)))
(assert (= a_747 (store a_745 i3 e_746)))
(assert (= a_748 (store a_747 i3 e_746)))
(assert (= a_749 (store a1 i1 e_712)))
(assert (= a_750 (store a_749 i0 e_710)))
(assert (= a_752 (store a_750 i6 e_751)))
(assert (= a_754 (store a_752 i4 e_753)))
(assert (= a_756 (store a_754 i1 e_755)))
(assert (= a_758 (store a_756 i4 e_757)))
(assert (= a_760 (store a_758 i0 e_759)))
(assert (= a_762 (store a_760 i1 e_761)))
(assert (= a_764 (store a_762 i0 e_763)))
(assert (= a_766 (store a_764 i7 e_765)))
(assert (= a_768 (store a_766 i0 e_767)))
(assert (= a_770 (store a_768 i2 e_769)))
(assert (= a_772 (store a_770 i3 e_771)))
(assert (= a_774 (store a_772 i8 e_773)))
(assert (= a_776 (store a_774 i2 e_775)))
(assert (= a_778 (store a_776 i6 e_777)))
(assert (= a_780 (store a_778 i4 e_779)))
(assert (= a_782 (store a_780 i2 e_781)))
(assert (= a_784 (store a_782 i4 e_783)))
(assert (= a_786 (store a_784 i3 e_785)))
(assert (= e_710 (select a1 i1)))
(assert (= e_712 (select a1 i0)))
(assert (= e_714 (select a_713 i6)))
(assert (= e_716 (select a_713 i4)))
(assert (= e_718 (select a_717 i4)))
(assert (= e_720 (select a_717 i1)))
(assert (= e_722 (select a_721 i1)))
(assert (= e_724 (select a_721 i0)))
(assert (= e_726 (select a_725 i0)))
(assert (= e_728 (select a_725 i7)))
(assert (= e_730 (select a_729 i0)))
(assert (= e_732 (select a_729 i2)))
(assert (= e_734 (select a_733 i3)))
(assert (= e_736 (select a_733 i8)))
(assert (= e_738 (select a_737 i2)))
(assert (= e_740 (select a_737 i6)))
(assert (= e_742 (select a_741 i4)))
(assert (= e_744 (select a_741 i2)))
(assert (= e_746 (select a_745 i3)))
(assert (= e_751 (select a_750 i4)))
(assert (= e_753 (select a_750 i6)))
(assert (= e_755 (select a_754 i4)))
(assert (= e_757 (select a_754 i1)))
(assert (= e_759 (select a_758 i1)))
(assert (= e_761 (select a_758 i0)))
(assert (= e_763 (select a_762 i7)))
(assert (= e_765 (select a_762 i0)))
(assert (= e_767 (select a_766 i2)))
(assert (= e_769 (select a_766 i0)))
(assert (= e_771 (select a_770 i8)))
(assert (= e_773 (select a_770 i3)))
(assert (= e_775 (select a_774 i6)))
(assert (= e_777 (select a_774 i2)))
(assert (= e_779 (select a_778 i2)))
(assert (= e_781 (select a_778 i4)))
(assert (= e_783 (select a_782 i3)))
(assert (= e_785 (select a_782 i4)))
(assert (not (= a_748 a_786)))
(check-sat)
(exit)
